50
649 702 958 197 66 825 334 373 815 184 910 492 72 918 573 79 839 775 741 658 993 13 975 643 253 613 338 651 705 525 99 392 303 750 932 776 531 171 708 266 998 173 969 16 780 347 575 416 308 438 
749 802 1058 297 166 925 434 473 915 284 1010 592 172 1018 673 179 939 875 841 758 1093 113 1075 743 353 713 438 751 805 625 199 492 403 850 1032 876 631 271 808 366 1098 273 1069 116 880 447 675 516 408 538 
13275
